(declare-const X String)
; \x2FNFO\x2CRegistered.*Host\x3A\s+TPSystemHost\x3A
(assert (not (str.in_re X (re.++ (str.to_re "/NFO,Registered") (re.* re.allchar) (str.to_re "Host:") (re.+ (re.union (str.to_re " ") (str.to_re "\u{9}") (str.to_re "\u{a}") (str.to_re "\u{c}") (str.to_re "\u{d}"))) (str.to_re "TPSystemHost:\u{a}")))))
(check-sat)
